NAME : SCA8-1.112615.tour
COMMENT : Cost = 0_112615
COMMENT : Found by LKH [Keld Helsgaun] Thu Sep 14 15:31:12 2017
TYPE : TOUR
DIMENSION : 59
TOUR_SECTION
1
38
22
24
9
36
11
20
57
3
44
15
12
4
10
50
53
21
6
48
18
40
52
41
39
5
49
27
14
42
29
56
43
30
46
17
13
59
26
2
19
7
8
31
55
45
35
33
23
54
34
37
16
47
28
58
25
51
32
-1
EOF
